id: 1769
name: watson_1
group: mittelmann/misc
method: 1

Gurobi 7.0.2 (linux64, Matlab) logging started Mon Apr 23 01:04:52 2018


Gurobi 7.0.2 (linux64) logging started Mon Apr 23 01:04:52 2018

Optimize a model with 201155 rows, 383927 columns and 1052028 nonzeros
Coefficient statistics:
  Matrix range     [2e-02, 9e+00]
  Objective range  [7e-04, 7e-04]
  Bounds range     [2e+02, 1e+03]
  RHS range        [1e+00, 1e+03]
Presolve removed 139709 rows and 213438 columns
Presolve time: 0.94s
Presolved: 61446 rows, 170489 columns, 738201 nonzeros

Iteration    Objective       Primal Inf.    Dual Inf.      Time
       0   -3.4212257e+30   1.536000e+33   3.421226e+00      1s
  112664   -1.9652813e+03   3.283233e+06   0.000000e+00      5s
Extra 7 simplex iterations after uncrush
  127890   -1.6934704e+03   0.000000e+00   0.000000e+00      8s

Solved in 127890 iterations and 8.17 seconds
Optimal objective -1.693470407e+03
status: OPTIMAL
